(set-logic HORN)
(declare-datatypes ((Nat_1 0)) (((Z_0 ) (S_0 (unS_0 Nat_1)))))
(declare-fun diseqNat_0 (Nat_1 Nat_1) Bool)
(declare-fun unS_1 (Nat_1 Nat_1) Bool)
(declare-fun isZ_0 (Nat_1) Bool)
(declare-fun isS_0 (Nat_1) Bool)
(assert (forall ((x_58 Nat_1) (x_57 Nat_1))
	(=> (= x_58 (S_0 x_57))
	    (unS_1 x_57 x_58))))
(assert (isZ_0 Z_0))
(assert (forall ((x_59 Nat_1))
	(isS_0 (S_0 x_59))))
(assert (forall ((x_60 Nat_1))
	(diseqNat_0 Z_0 (S_0 x_60))))
(assert (forall ((x_61 Nat_1))
	(diseqNat_0 (S_0 x_61) Z_0)))
(assert (forall ((x_62 Nat_1) (x_63 Nat_1))
	(=> (diseqNat_0 x_62 x_63)
	    (diseqNat_0 (S_0 x_62) (S_0 x_63)))))
(declare-fun add_0 (Nat_1 Nat_1 Nat_1) Bool)
(declare-fun minus_0 (Nat_1 Nat_1 Nat_1) Bool)
(declare-fun le_0 (Nat_1 Nat_1) Bool)
(declare-fun ge_0 (Nat_1 Nat_1) Bool)
(declare-fun lt_0 (Nat_1 Nat_1) Bool)
(declare-fun gt_0 (Nat_1 Nat_1) Bool)
(declare-fun mult_0 (Nat_1 Nat_1 Nat_1) Bool)
(declare-fun div_0 (Nat_1 Nat_1 Nat_1) Bool)
(declare-fun mod_0 (Nat_1 Nat_1 Nat_1) Bool)
(assert (forall ((y_6 Nat_1))
	(add_0 y_6 Z_0 y_6)))
(assert (forall ((x_55 Nat_1) (y_6 Nat_1) (r_0 Nat_1))
	(=> (add_0 r_0 x_55 y_6)
	    (add_0 (S_0 r_0) (S_0 x_55) y_6))))
(assert (forall ((y_6 Nat_1))
	(minus_0 Z_0 Z_0 y_6)))
(assert (forall ((x_55 Nat_1) (y_6 Nat_1) (r_0 Nat_1))
	(=> (minus_0 r_0 x_55 y_6)
	    (minus_0 (S_0 r_0) (S_0 x_55) y_6))))
(assert (forall ((y_6 Nat_1))
	(le_0 Z_0 y_6)))
(assert (forall ((x_55 Nat_1) (y_6 Nat_1))
	(=> (le_0 x_55 y_6)
	    (le_0 (S_0 x_55) (S_0 y_6)))))
(assert (forall ((y_6 Nat_1))
	(ge_0 y_6 Z_0)))
(assert (forall ((x_55 Nat_1) (y_6 Nat_1))
	(=> (ge_0 x_55 y_6)
	    (ge_0 (S_0 x_55) (S_0 y_6)))))
(assert (forall ((y_6 Nat_1))
	(lt_0 Z_0 (S_0 y_6))))
(assert (forall ((x_55 Nat_1) (y_6 Nat_1))
	(=> (lt_0 x_55 y_6)
	    (lt_0 (S_0 x_55) (S_0 y_6)))))
(assert (forall ((y_6 Nat_1))
	(gt_0 (S_0 y_6) Z_0)))
(assert (forall ((x_55 Nat_1) (y_6 Nat_1))
	(=> (gt_0 x_55 y_6)
	    (gt_0 (S_0 x_55) (S_0 y_6)))))
(assert (forall ((y_6 Nat_1))
	(mult_0 Z_0 Z_0 y_6)))
(assert (forall ((x_55 Nat_1) (y_6 Nat_1) (r_0 Nat_1) (z_4 Nat_1))
	(=>	(and (mult_0 r_0 x_55 y_6)
			(add_0 z_4 r_0 y_6))
		(mult_0 z_4 (S_0 x_55) y_6))))
(assert (forall ((x_55 Nat_1) (y_6 Nat_1))
	(=> (lt_0 x_55 y_6)
	    (div_0 Z_0 x_55 y_6))))
(assert (forall ((x_55 Nat_1) (y_6 Nat_1) (r_0 Nat_1) (z_4 Nat_1))
	(=>	(and (ge_0 x_55 y_6)
			(minus_0 z_4 x_55 y_6)
			(div_0 r_0 z_4 y_6))
		(div_0 (S_0 r_0) x_55 y_6))))
(assert (forall ((x_55 Nat_1) (y_6 Nat_1))
	(=> (lt_0 x_55 y_6)
	    (mod_0 x_55 x_55 y_6))))
(assert (forall ((x_55 Nat_1) (y_6 Nat_1) (r_0 Nat_1) (z_4 Nat_1))
	(=>	(and (ge_0 x_55 y_6)
			(minus_0 z_4 x_55 y_6)
			(mod_0 r_0 z_4 y_6))
		(mod_0 r_0 x_55 y_6))))
(declare-datatypes ((Nat_0 0)) (((zero_0 ) (succ_0 (p_0 Nat_0)))))
(declare-fun diseqNat_1 (Nat_0 Nat_0) Bool)
(declare-fun p_1 (Nat_0 Nat_0) Bool)
(declare-fun iszero_0 (Nat_0) Bool)
(declare-fun issucc_0 (Nat_0) Bool)
(assert (forall ((x_66 Nat_0) (x_65 Nat_0))
	(=> (= x_66 (succ_0 x_65))
	    (p_1 x_65 x_66))))
(assert (iszero_0 zero_0))
(assert (forall ((x_67 Nat_0))
	(issucc_0 (succ_0 x_67))))
(assert (forall ((x_68 Nat_0))
	(diseqNat_1 zero_0 (succ_0 x_68))))
(assert (forall ((x_69 Nat_0))
	(diseqNat_1 (succ_0 x_69) zero_0)))
(assert (forall ((x_70 Nat_0) (x_71 Nat_0))
	(=> (diseqNat_1 x_70 x_71)
	    (diseqNat_1 (succ_0 x_70) (succ_0 x_71)))))
(declare-datatypes ((Integer_0 0)) (((P_0 (projP_0 Nat_0)) (N_0 (projN_0 Nat_0)))))
(declare-fun diseqInteger_0 (Integer_0 Integer_0) Bool)
(declare-fun projP_1 (Nat_0 Integer_0) Bool)
(declare-fun projN_1 (Nat_0 Integer_0) Bool)
(declare-fun isP_0 (Integer_0) Bool)
(declare-fun isN_0 (Integer_0) Bool)
(assert (forall ((x_73 Integer_0) (x_72 Nat_0))
	(=> (= x_73 (P_0 x_72))
	    (projP_1 x_72 x_73))))
(assert (forall ((x_75 Integer_0) (x_74 Nat_0))
	(=> (= x_75 (N_0 x_74))
	    (projN_1 x_74 x_75))))
(assert (forall ((x_76 Nat_0))
	(isP_0 (P_0 x_76))))
(assert (forall ((x_77 Nat_0))
	(isN_0 (N_0 x_77))))
(assert (forall ((x_78 Nat_0) (x_79 Nat_0))
	(diseqInteger_0 (P_0 x_78) (N_0 x_79))))
(assert (forall ((x_80 Nat_0) (x_81 Nat_0))
	(diseqInteger_0 (N_0 x_80) (P_0 x_81))))
(assert (forall ((x_82 Nat_0) (x_83 Nat_0))
	(=> (diseqNat_1 x_82 x_83)
	    (diseqInteger_0 (P_0 x_82) (P_0 x_83)))))
(assert (forall ((x_84 Nat_0) (x_85 Nat_0))
	(=> (diseqNat_1 x_84 x_85)
	    (diseqInteger_0 (N_0 x_84) (N_0 x_85)))))
(declare-fun zero_1 (Integer_0) Bool)
(assert (forall ((x_13 Integer_0))
	(=> (= x_13 (P_0 zero_0))
	    (zero_1 x_13))))
(declare-fun plus_0 (Nat_0 Nat_0 Nat_0) Bool)
(assert (forall ((x_0 Nat_0) (y_0 Nat_0) (z_0 Nat_0) (x_14 Nat_0) (x_15 Nat_0))
	(=>	(and (= x_14 (succ_0 x_15))
			(plus_0 x_15 z_0 y_0)
			(= x_0 (succ_0 z_0)))
		(plus_0 x_14 x_0 y_0))))
(assert (forall ((x_0 Nat_0) (y_0 Nat_0) (x_16 Nat_0))
	(=>	(and (= x_16 y_0)
			(= x_0 zero_0))
		(plus_0 x_16 x_0 y_0))))
(declare-fun neg_0 (Integer_0 Integer_0) Bool)
(assert (forall ((x_1 Integer_0) (n_0 Nat_0) (x_17 Integer_0) (x_18 Nat_0))
	(=>	(and (= x_17 (P_0 x_18))
			(plus_0 x_18 (succ_0 zero_0) n_0)
			(= x_1 (N_0 n_0)))
		(neg_0 x_17 x_1))))
(assert (forall ((x_1 Integer_0) (y_1 Nat_0) (z_1 Nat_0) (x_19 Integer_0))
	(=>	(and (= x_19 (N_0 z_1))
			(= x_1 (P_0 y_1))
			(= y_1 (succ_0 z_1)))
		(neg_0 x_19 x_1))))
(assert (forall ((x_1 Integer_0) (y_1 Nat_0) (x_20 Integer_0))
	(=>	(and (= x_20 (P_0 zero_0))
			(= x_1 (P_0 y_1))
			(= y_1 zero_0))
		(neg_0 x_20 x_1))))
(declare-fun x_2 (Integer_0 Nat_0 Nat_0) Bool)
(assert (forall ((x_3 Nat_0) (y_2 Nat_0) (fail_0 Integer_0) (z_2 Nat_0) (x_4 Nat_0) (x_5 Nat_0) (x_22 Integer_0) (x_21 Integer_0))
	(=>	(and (= x_22 fail_0)
			(= fail_0 x_21)
			(= y_2 (succ_0 z_2))
			(= x_3 (succ_0 x_4))
			(= x_3 (succ_0 x_5))
			(x_2 x_21 x_4 z_2))
		(x_2 x_22 x_3 y_2))))
(assert (forall ((x_3 Nat_0) (y_2 Nat_0) (fail_0 Integer_0) (z_2 Nat_0) (x_4 Nat_0) (x_6 Nat_0) (x_24 Integer_0) (x_23 Integer_0))
	(=>	(and (= x_24 fail_0)
			(= fail_0 x_23)
			(= y_2 (succ_0 z_2))
			(= x_3 (succ_0 x_4))
			(= x_3 zero_0)
			(= y_2 (succ_0 x_6))
			(x_2 x_23 x_4 z_2))
		(x_2 x_24 x_3 y_2))))
(assert (forall ((x_3 Nat_0) (y_2 Nat_0) (fail_0 Integer_0) (z_2 Nat_0) (x_4 Nat_0) (x_26 Integer_0) (x_25 Integer_0))
	(=>	(and (= x_26 (P_0 zero_0))
			(= fail_0 x_25)
			(= y_2 (succ_0 z_2))
			(= x_3 (succ_0 x_4))
			(= x_3 zero_0)
			(= y_2 zero_0)
			(x_2 x_25 x_4 z_2))
		(x_2 x_26 x_3 y_2))))
(assert (forall ((x_3 Nat_0) (y_2 Nat_0) (fail_0 Integer_0) (z_2 Nat_0) (x_5 Nat_0) (x_27 Integer_0))
	(=>	(and (= x_27 fail_0)
			(= fail_0 (N_0 (succ_0 z_2)))
			(= y_2 (succ_0 z_2))
			(= x_3 zero_0)
			(= x_3 (succ_0 x_5)))
		(x_2 x_27 x_3 y_2))))
(assert (forall ((x_3 Nat_0) (y_2 Nat_0) (fail_0 Integer_0) (z_2 Nat_0) (x_6 Nat_0) (x_28 Integer_0))
	(=>	(and (= x_28 fail_0)
			(= fail_0 (N_0 (succ_0 z_2)))
			(= y_2 (succ_0 z_2))
			(= x_3 zero_0)
			(= x_3 zero_0)
			(= y_2 (succ_0 x_6)))
		(x_2 x_28 x_3 y_2))))
(assert (forall ((x_3 Nat_0) (y_2 Nat_0) (fail_0 Integer_0) (z_2 Nat_0) (x_29 Integer_0))
	(=>	(and (= x_29 (P_0 zero_0))
			(= fail_0 (N_0 (succ_0 z_2)))
			(= y_2 (succ_0 z_2))
			(= x_3 zero_0)
			(= x_3 zero_0)
			(= y_2 zero_0))
		(x_2 x_29 x_3 y_2))))
(assert (forall ((x_3 Nat_0) (y_2 Nat_0) (fail_0 Integer_0) (x_5 Nat_0) (x_30 Integer_0))
	(=>	(and (= x_30 fail_0)
			(= fail_0 (P_0 x_3))
			(= y_2 zero_0)
			(= x_3 (succ_0 x_5)))
		(x_2 x_30 x_3 y_2))))
(assert (forall ((x_3 Nat_0) (y_2 Nat_0) (fail_0 Integer_0) (x_6 Nat_0) (x_31 Integer_0))
	(=>	(and (= x_31 fail_0)
			(= fail_0 (P_0 x_3))
			(= y_2 zero_0)
			(= x_3 zero_0)
			(= y_2 (succ_0 x_6)))
		(x_2 x_31 x_3 y_2))))
(assert (forall ((x_3 Nat_0) (y_2 Nat_0) (fail_0 Integer_0) (x_32 Integer_0))
	(=>	(and (= x_32 (P_0 zero_0))
			(= fail_0 (P_0 x_3))
			(= y_2 zero_0)
			(= x_3 zero_0)
			(= y_2 zero_0))
		(x_2 x_32 x_3 y_2))))
(declare-fun plus_1 (Integer_0 Integer_0 Integer_0) Bool)
(assert (forall ((x_7 Integer_0) (y_3 Integer_0) (m_0 Nat_0) (n_1 Nat_0) (x_33 Integer_0) (x_34 Nat_0) (x_35 Nat_0))
	(=>	(and (= x_33 (N_0 x_35))
			(plus_0 x_34 (succ_0 zero_0) m_0)
			(plus_0 x_35 x_34 n_1)
			(= x_7 (N_0 m_0))
			(= y_3 (N_0 n_1)))
		(plus_1 x_33 x_7 y_3))))
(assert (forall ((x_7 Integer_0) (y_3 Integer_0) (m_0 Nat_0) (n_2 Nat_0) (x_36 Integer_0) (x_37 Nat_0) (x_38 Integer_0))
	(=>	(and (= x_36 x_38)
			(plus_0 x_37 (succ_0 zero_0) m_0)
			(x_2 x_38 n_2 x_37)
			(= x_7 (N_0 m_0))
			(= y_3 (P_0 n_2)))
		(plus_1 x_36 x_7 y_3))))
(assert (forall ((x_7 Integer_0) (y_3 Integer_0) (m_1 Nat_0) (o_0 Nat_0) (x_39 Integer_0) (x_40 Nat_0) (x_41 Integer_0))
	(=>	(and (= x_39 x_41)
			(plus_0 x_40 (succ_0 zero_0) o_0)
			(x_2 x_41 m_1 x_40)
			(= x_7 (P_0 m_1))
			(= y_3 (N_0 o_0)))
		(plus_1 x_39 x_7 y_3))))
(assert (forall ((x_7 Integer_0) (y_3 Integer_0) (m_1 Nat_0) (n_3 Nat_0) (x_42 Integer_0) (x_43 Nat_0))
	(=>	(and (= x_42 (P_0 x_43))
			(plus_0 x_43 m_1 n_3)
			(= x_7 (P_0 m_1))
			(= y_3 (P_0 n_3)))
		(plus_1 x_42 x_7 y_3))))
(assert (forall ((x_8 Integer_0) (x_44 Integer_0) (x_45 Integer_0) (x_46 Integer_0))
	(=>	(and (diseqInteger_0 x_45 x_46)
			(neg_0 x_44 x_8)
			(plus_1 x_45 x_44 x_8)
			(zero_1 x_46))
		false)))
(assert (forall ((x_9 Nat_0) (y_4 Nat_0) (z_3 Nat_0) (x_47 Nat_0) (x_48 Nat_0) (x_49 Nat_0) (x_50 Nat_0))
	(=>	(and (diseqNat_1 x_48 x_50)
			(plus_0 x_47 y_4 z_3)
			(plus_0 x_48 x_9 x_47)
			(plus_0 x_49 x_9 y_4)
			(plus_0 x_50 x_49 z_3))
		false)))
(assert (forall ((x_10 Nat_0) (y_5 Nat_0) (x_51 Nat_0) (x_52 Nat_0))
	(=>	(and (diseqNat_1 x_51 x_52)
			(plus_0 x_51 x_10 y_5)
			(plus_0 x_52 y_5 x_10))
		false)))
(assert (forall ((x_11 Nat_0) (x_53 Nat_0))
	(=>	(and (diseqNat_1 x_53 x_11)
			(plus_0 x_53 x_11 zero_0))
		false)))
(assert (forall ((x_12 Nat_0) (x_54 Nat_0))
	(=>	(and (diseqNat_1 x_54 x_12)
			(plus_0 x_54 zero_0 x_12))
		false)))
(check-sat)
